27	3

14	14	14	

0	0	0	0	3	2	3	4	
5	3	5	2	2	5	8	
5	5	4	3	2	5	8	
3	5	2	2	3	6	7	8	
4	4	1	4	2	9	12	
1	5	5	4	2	10	11	
6	3	5	2	2	9	10	
2	2	4	4	2	9	10	
6	3	2	2	2	13	15	
3	3	2	4	1	13	
3	3	3	2	1	16	
1	4	1	4	1	14	
3	1	4	4	1	19	
6	2	2	2	1	18	
3	5	5	4	1	17	
4	1	5	4	2	17	20	
4	4	5	4	2	22	24	
3	3	2	3	1	21	
3	5	3	3	2	21	23	
1	2	4	6	1	22	
4	1	6	2	1	25	
6	3	2	1	1	25	
4	1	0	4	2	25	26	
1	2	2	1	1	25	
3	0	1	3	1	27	
3	2	2	2	1	27	
0	0	0	0	0	
